SCIP version 5.0.0 [precision: 8 byte] [memory: block] [mode: optimized] [LP solver: NONE] [GitHash: 3bbd232]
Copyright (C) 2002-2017 Konrad-Zuse-Zentrum fuer Informationstechnik Berlin (ZIB)

External codes: 
  Readline EditLine w  GNU library for command line editing (gnu.org/s/readline)
  CppAD 20160000.1     Algorithmic Differentiation of C++ algorithms developed by B. Bell (www.coin-or.org/CppAD)
  ZLIB 1.2.5           General purpose compression library by J. Gailly and M. Adler (zlib.net)
  GMP 6.1.2            GNU Multiple Precision Arithmetic Library developed by T. Granlund (gmplib.org)

user parameter file <scip.set> not found - using default parameters

read problem <../../Split_data/output/statG/2/3_sample_statG.logreg>
============

File name	:	../../Split_data/output/statG/2/3_sample_statG.logreg
Problem name 	:	3_sample_statG
Number of data	:	800
Number of var	:	61
The given data has linear dependence
13 sets of column vector are linearly dependent:

[dim=1] time: 0.048383
[dim=2] time: 0.088704
[dim=3] time: 0.127643
[dim=4] time: 0.166106
[dim=5] time: 0.205635
[dim=6] time: 0.246436
[dim=7] time: 0.295553
[dim=8] time: 0.34083
[dim=9] time: 0.393686
[dim=10] time: 0.442258
[dim=11] time: 0.485003
[dim=12] time: 0.523177
[dim=13] time: 0.5698
[dim=14] time: 0.609326
[dim=15] time: 0.649033
[dim=16] time: 0.686647
[dim=17] time: 0.726071
[dim=18] time: 0.764014
[dim=19] time: 0.801772
[dim=20] time: 0.840302
[dim=21] time: 0.876426
[dim=22] time: 0.91075
[dim=23] time: 0.947288
[dim=24] time: 0.98722
[dim=25] Time of forward = 1.01852sec.
AIC: 758.995
k: 24

[dim=48] time: 0.105711
[dim=47] time: 0.194234
[dim=46] time: 0.27266
[dim=45] time: 0.341728
[dim=44] time: 0.417363
[dim=43] time: 0.478363
[dim=42] time: 0.539609
[dim=41] time: 0.602074
[dim=40] time: 0.674694
[dim=39] time: 0.739925
[dim=38] time: 0.787859
[dim=37] time: 0.838357
[dim=36] time: 0.883292
[dim=35] time: 0.931981
[dim=34] time: 0.983608
[dim=33] time: 1.0291
[dim=32] time: 1.07321
[dim=31] time: 1.12275
[dim=30] time: 1.16638
[dim=29] time: 1.21114
[dim=28] time: 1.2462
[dim=27] time: 1.27163
[dim=26] time: 1.31534
[dim=25] time: 1.34636
[dim=24] Time of backward = 1.37504sec.
AIC: 760.947
k: 25
